************************************************************************
file with basedata            : mm60_.bas
initial value random generator: 6296
************************************************************************
projects                      :  1
jobs (incl. supersource/sink ):  12
horizon                       :  79
RESOURCES
  - renewable                 :  2   R
  - nonrenewable              :  2   N
  - doubly constrained        :  0   D
************************************************************************
PROJECT INFORMATION:
pronr.  #jobs rel.date duedate tardcost  MPM-Time
    1     10      0       13        2       13
************************************************************************
PRECEDENCE RELATIONS:
jobnr.    #modes  #successors   successors
   0        1          3           1   2   3
   1        3          1           8
   2        3          1           6
   3        3          2           4   5
   4        3          2           6   8
   5        3          3           6   7   8
   6        3          1           9
   7        3          2           9  10
   8        3          1          11
   9        3          1          11
  10        3          1          11
  11        1          0        
************************************************************************
REQUESTS/DURATIONS:
jobnr. mode duration  R 1  R 2  R 3  R 4  E(W 1)  E(W 2)  E(W 3)
------------------------------------------------------------------------
  0      1     0       0    0    0    0     0       0       0
  1      1     2       8    5    0    5    26       0      10
  2      1     3       8    7    0    6    45       0      18
  3      1     5       7   10    0    7    85       0      35
  4      1     5       8    7    5    0    75      25       0
  5      1     1       4    7    8    0    11       8       0
  6      1     1       8    9    0    8    17       0       8
  7      1     5       8   10    0    9    90       0      45
  8      1     1       3   10    0    6    13       0       6
  9      1     2       6    9    0    9    30       0      18
 10      1     2       8    7    0    9    30       0      18
 11      1     0       0    0    0    0     0       0       0
************************************************************************
RESOURCEAVAILABILITIES:
  R 1  R 2  R 3
   52   44   68
************************************************************************
RESOURCE LIMITS:
jobnr.  l(R 1)  u(R 1)  l(R 2)  u(R 2)  l(R 3)  u(R 3)
------------------------------------------------------------------------
  0        0       0       0       0       0       0
  1        7      13       0       0       3       5
  2        8      15       0       0       3       6
  3        9      17       0       0       4       7
  4        8      15       3       5       0       0
  5        6      11       4       8       0       0
  6        9      17       0       0       4       8
  7        9      18       0       0       5       9
  8        7      13       0       0       3       6
  9        8      15       0       0       5       9
 10        8      15       0       0       5       9
 11        0       0       0       0       0       0
************************************************************************
SCENARIOS:
------------------------------------------------------------------------
RESOURCE k = 1
s = 1: (0, 25, 43, 64, 52, 15, 24, 74, 16, 50, 25, 0)
s = 2: (0, 28, 42, 107, 89, 13, 21, 96, 11, 25, 26, 0)
s = 3: (0, 31, 56, 83, 68, 20, 20, 108, 15, 27, 39, 0)
s = 4: (0, 30, 36, 82, 64, 11, 13, 137, 8, 28, 20, 0)
s = 5: (0, 35, 62, 57, 51, 9, 13, 87, 12, 24, 31, 0)
s = 6: (0, 30, 38, 104, 71, 9, 22, 118, 16, 27, 27, 0)
s = 7: (0, 15, 66, 104, 61, 11, 23, 57, 19, 34, 47, 0)
s = 8: (0, 23, 33, 132, 66, 9, 18, 100, 16, 21, 37, 0)
s = 9: (0, 27, 34, 53, 105, 7, 20, 147, 14, 38, 39, 0)
s = 10: (0, 21, 61, 54, 92, 12, 15, 84, 16, 48, 37, 0)
s = 11: (0, 18, 47, 79, 52, 8, 23, 114, 16, 25, 33, 0)
s = 12: (0, 22, 33, 67, 86, 11, 21, 55, 15, 46, 26, 0)
s = 13: (0, 22, 46, 60, 81, 7, 22, 124, 10, 41, 23, 0)
s = 14: (0, 23, 39, 105, 51, 12, 18, 101, 11, 39, 33, 0)
s = 15: (0, 41, 54, 70, 50, 7, 20, 139, 19, 32, 19, 0)
s = 16: (0, 23, 54, 66, 94, 13, 13, 96, 8, 38, 32, 0)
s = 17: (0, 22, 37, 63, 78, 10, 20, 101, 8, 24, 21, 0)
s = 18: (0, 26, 63, 117, 106, 14, 20, 68, 13, 25, 30, 0)
s = 19: (0, 22, 32, 92, 86, 7, 24, 112, 13, 49, 33, 0)
s = 20: (0, 22, 42, 82, 47, 10, 19, 109, 12, 17, 21, 0)
s = 21: (0, 35, 65, 73, 58, 9, 25, 123, 12, 28, 39, 0)
s = 22: (0, 36, 55, 110, 49, 10, 14, 98, 9, 20, 28, 0)
s = 23: (0, 22, 48, 114, 104, 7, 16, 87, 16, 18, 38, 0)
s = 24: (0, 36, 36, 65, 48, 8, 19, 65, 17, 34, 44, 0)
s = 25: (0, 20, 27, 68, 84, 13, 17, 63, 10, 31, 17, 0)
s = 26: (0, 22, 64, 65, 51, 15, 18, 97, 14, 32, 21, 0)
s = 27: (0, 38, 41, 76, 84, 7, 14, 100, 16, 39, 17, 0)
s = 28: (0, 20, 34, 136, 85, 17, 22, 65, 15, 30, 52, 0)
s = 29: (0, 21, 46, 72, 58, 14, 17, 82, 14, 40, 33, 0)
s = 30: (0, 15, 45, 64, 51, 10, 12, 110, 12, 37, 44, 0)
s = 31: (0, 14, 68, 94, 109, 14, 23, 60, 23, 29, 25, 0)
s = 32: (0, 30, 34, 120, 99, 7, 24, 91, 9, 28, 37, 0)
s = 33: (0, 30, 59, 70, 118, 10, 17, 79, 16, 27, 19, 0)
s = 34: (0, 41, 42, 94, 72, 11, 18, 85, 8, 27, 42, 0)
s = 35: (0, 33, 45, 100, 65, 12, 17, 54, 12, 27, 43, 0)
s = 36: (0, 32, 60, 136, 90, 11, 20, 91, 13, 38, 31, 0)
s = 37: (0, 15, 72, 77, 92, 18, 19, 86, 8, 48, 26, 0)
s = 38: (0, 24, 42, 139, 52, 13, 15, 97, 12, 33, 18, 0)
s = 39: (0, 23, 42, 84, 68, 8, 28, 58, 15, 28, 27, 0)
s = 40: (0, 26, 37, 84, 45, 16, 19, 72, 17, 33, 43, 0)
s = 41: (0, 17, 48, 68, 98, 7, 14, 150, 17, 20, 29, 0)
s = 42: (0, 29, 45, 98, 90, 9, 11, 106, 8, 24, 20, 0)
s = 43: (0, 24, 53, 86, 74, 10, 28, 109, 12, 31, 37, 0)
s = 44: (0, 25, 48, 81, 123, 11, 24, 111, 13, 38, 30, 0)
s = 45: (0, 37, 45, 122, 47, 11, 19, 90, 15, 25, 27, 0)
s = 46: (0, 21, 34, 64, 72, 7, 20, 103, 15, 29, 33, 0)
s = 47: (0, 20, 41, 52, 57, 19, 11, 112, 24, 38, 30, 0)
s = 48: (0, 31, 30, 74, 77, 18, 23, 102, 10, 32, 28, 0)
s = 49: (0, 27, 31, 83, 91, 8, 21, 96, 13, 26, 22, 0)
s = 50: (0, 25, 30, 76, 45, 20, 17, 82, 15, 30, 20, 0)
s = 51: (0, 30, 33, 59, 78, 10, 22, 106, 11, 19, 32, 0)
s = 52: (0, 27, 75, 66, 49, 11, 21, 91, 16, 21, 35, 0)
s = 53: (0, 25, 37, 61, 76, 10, 17, 94, 22, 45, 38, 0)
s = 54: (0, 30, 61, 53, 105, 9, 20, 101, 16, 39, 37, 0)
s = 55: (0, 33, 51, 125, 56, 12, 17, 85, 8, 37, 44, 0)
s = 56: (0, 34, 30, 69, 40, 10, 17, 56, 10, 45, 45, 0)
s = 57: (0, 20, 36, 102, 48, 16, 16, 66, 16, 27, 21, 0)
s = 58: (0, 36, 27, 65, 55, 10, 18, 89, 15, 30, 17, 0)
s = 59: (0, 36, 36, 94, 89, 11, 26, 81, 10, 29, 33, 0)
s = 60: (0, 30, 58, 105, 44, 15, 18, 109, 9, 24, 40, 0)
s = 61: (0, 39, 52, 106, 98, 15, 13, 74, 11, 33, 21, 0)
s = 62: (0, 19, 39, 101, 95, 11, 14, 59, 8, 41, 35, 0)
s = 63: (0, 37, 47, 125, 107, 8, 23, 75, 9, 30, 32, 0)
s = 64: (0, 18, 36, 92, 93, 8, 22, 84, 10, 36, 33, 0)
s = 65: (0, 33, 36, 75, 46, 8, 19, 113, 13, 26, 35, 0)
s = 66: (0, 28, 53, 55, 84, 10, 27, 116, 13, 46, 32, 0)
s = 67: (0, 16, 43, 65, 76, 9, 16, 51, 18, 18, 31, 0)
s = 68: (0, 35, 31, 105, 63, 10, 14, 85, 15, 42, 53, 0)
s = 69: (0, 26, 57, 61, 56, 11, 14, 102, 20, 21, 32, 0)
s = 70: (0, 16, 63, 118, 68, 16, 12, 80, 17, 26, 23, 0)
s = 71: (0, 39, 58, 82, 75, 12, 11, 100, 12, 28, 25, 0)
s = 72: (0, 15, 37, 132, 98, 9, 17, 78, 13, 25, 23, 0)
s = 73: (0, 34, 50, 83, 68, 10, 16, 140, 17, 28, 23, 0)
s = 74: (0, 19, 44, 90, 105, 14, 27, 71, 10, 35, 29, 0)
s = 75: (0, 19, 54, 92, 88, 10, 16, 135, 16, 26, 19, 0)
s = 76: (0, 41, 36, 83, 52, 11, 20, 78, 13, 20, 22, 0)
s = 77: (0, 32, 36, 124, 59, 7, 20, 111, 20, 27, 24, 0)
s = 78: (0, 41, 35, 90, 65, 14, 17, 77, 16, 20, 47, 0)
s = 79: (0, 35, 31, 89, 79, 19, 18, 87, 14, 22, 28, 0)
s = 80: (0, 18, 37, 66, 70, 13, 20, 81, 13, 25, 25, 0)
s = 81: (0, 26, 34, 102, 49, 15, 13, 110, 9, 52, 32, 0)
s = 82: (0, 33, 28, 141, 74, 6, 19, 66, 12, 27, 35, 0)
s = 83: (0, 21, 64, 117, 76, 12, 21, 111, 15, 41, 30, 0)
s = 84: (0, 16, 38, 105, 67, 10, 27, 72, 13, 29, 29, 0)
s = 85: (0, 21, 50, 89, 86, 8, 16, 72, 22, 28, 31, 0)
s = 86: (0, 17, 43, 81, 48, 8, 15, 84, 12, 27, 19, 0)
s = 87: (0, 22, 34, 49, 70, 14, 13, 92, 11, 22, 26, 0)
s = 88: (0, 32, 45, 80, 120, 10, 15, 49, 9, 22, 34, 0)
s = 89: (0, 17, 37, 72, 54, 9, 16, 96, 9, 21, 28, 0)
s = 90: (0, 31, 64, 151, 75, 14, 18, 80, 16, 27, 33, 0)
s = 91: (0, 18, 40, 62, 94, 13, 21, 87, 10, 39, 26, 0)
s = 92: (0, 23, 56, 119, 82, 10, 25, 54, 9, 34, 37, 0)
s = 93: (0, 23, 41, 136, 78, 8, 12, 82, 10, 24, 17, 0)
s = 94: (0, 29, 28, 123, 39, 11, 21, 57, 9, 32, 33, 0)
s = 95: (0, 16, 38, 57, 71, 8, 13, 71, 11, 22, 35, 0)
s = 96: (0, 28, 40, 87, 52, 11, 11, 133, 11, 28, 22, 0)
s = 97: (0, 30, 47, 54, 81, 14, 30, 70, 13, 30, 32, 0)
s = 98: (0, 18, 40, 57, 96, 7, 18, 69, 17, 41, 19, 0)
s = 99: (0, 30, 27, 83, 75, 11, 21, 53, 15, 30, 37, 0)
s = 100: (0, 18, 45, 89, 72, 18, 11, 58, 16, 32, 26, 0)
s = 101: (0, 23, 79, 75, 69, 7, 13, 157, 9, 35, 27, 0)
s = 102: (0, 18, 36, 101, 69, 13, 18, 108, 10, 17, 19, 0)
s = 103: (0, 18, 48, 62, 65, 12, 12, 85, 9, 48, 40, 0)
s = 104: (0, 29, 57, 60, 101, 15, 16, 92, 15, 40, 49, 0)
s = 105: (0, 30, 30, 58, 97, 10, 15, 55, 12, 39, 27, 0)
s = 106: (0, 21, 36, 127, 58, 11, 14, 74, 18, 22, 41, 0)
s = 107: (0, 23, 57, 61, 110, 8, 12, 94, 18, 30, 18, 0)
s = 108: (0, 21, 49, 87, 77, 6, 15, 113, 15, 22, 26, 0)
s = 109: (0, 49, 47, 63, 132, 18, 13, 115, 14, 41, 28, 0)
s = 110: (0, 21, 62, 102, 38, 17, 19, 59, 9, 36, 20, 0)
s = 111: (0, 22, 31, 87, 91, 9, 15, 64, 10, 23, 37, 0)
s = 112: (0, 46, 31, 63, 44, 9, 31, 128, 8, 25, 45, 0)
s = 113: (0, 30, 52, 114, 51, 7, 10, 88, 9, 33, 28, 0)
s = 114: (0, 26, 57, 60, 116, 14, 24, 98, 8, 45, 22, 0)
s = 115: (0, 18, 51, 51, 90, 7, 10, 131, 22, 46, 39, 0)
s = 116: (0, 28, 42, 62, 93, 9, 11, 60, 18, 38, 42, 0)
s = 117: (0, 14, 41, 109, 55, 9, 15, 63, 21, 21, 32, 0)
s = 118: (0, 24, 67, 69, 79, 13, 15, 118, 21, 45, 54, 0)
s = 119: (0, 29, 33, 111, 85, 11, 22, 106, 17, 43, 38, 0)
s = 120: (0, 33, 31, 87, 53, 12, 19, 65, 18, 30, 24, 0)
s = 121: (0, 43, 33, 119, 95, 9, 14, 76, 12, 28, 29, 0)
s = 122: (0, 20, 29, 88, 66, 17, 12, 74, 10, 35, 20, 0)
s = 123: (0, 22, 61, 88, 65, 12, 20, 91, 15, 32, 42, 0)
s = 124: (0, 30, 33, 101, 113, 12, 17, 98, 11, 39, 35, 0)
s = 125: (0, 25, 51, 130, 76, 12, 18, 112, 12, 23, 34, 0)
s = 126: (0, 26, 60, 122, 56, 11, 12, 97, 11, 21, 27, 0)
s = 127: (0, 43, 74, 58, 80, 15, 26, 77, 10, 27, 24, 0)
s = 128: (0, 18, 50, 92, 61, 7, 13, 78, 12, 28, 43, 0)
s = 129: (0, 23, 52, 97, 77, 13, 26, 54, 22, 31, 32, 0)
s = 130: (0, 20, 52, 92, 98, 11, 16, 69, 15, 20, 28, 0)
s = 131: (0, 28, 53, 62, 79, 8, 19, 138, 16, 45, 19, 0)
s = 132: (0, 33, 36, 62, 55, 15, 18, 115, 11, 45, 34, 0)
s = 133: (0, 18, 33, 61, 76, 9, 16, 75, 15, 31, 24, 0)
s = 134: (0, 27, 28, 75, 67, 13, 10, 124, 12, 39, 32, 0)
s = 135: (0, 22, 56, 68, 76, 17, 25, 54, 15, 26, 18, 0)
s = 136: (0, 16, 53, 49, 53, 10, 21, 71, 16, 22, 36, 0)
s = 137: (0, 25, 56, 85, 97, 14, 10, 94, 14, 41, 20, 0)
s = 138: (0, 42, 33, 126, 83, 10, 19, 114, 13, 42, 28, 0)
s = 139: (0, 19, 46, 131, 100, 13, 20, 80, 10, 20, 29, 0)
s = 140: (0, 17, 27, 72, 84, 9, 20, 120, 11, 42, 46, 0)
s = 141: (0, 25, 53, 82, 60, 12, 14, 81, 16, 23, 39, 0)
s = 142: (0, 21, 51, 113, 74, 11, 12, 120, 13, 33, 17, 0)
s = 143: (0, 24, 36, 53, 66, 11, 20, 70, 11, 23, 25, 0)
s = 144: (0, 16, 63, 68, 63, 10, 12, 100, 8, 30, 34, 0)
s = 145: (0, 16, 51, 45, 62, 11, 25, 68, 11, 47, 39, 0)
s = 146: (0, 36, 52, 83, 87, 15, 17, 84, 18, 22, 23, 0)
s = 147: (0, 25, 55, 72, 117, 14, 15, 51, 9, 25, 37, 0)
s = 148: (0, 20, 33, 72, 75, 14, 16, 106, 12, 34, 47, 0)
s = 149: (0, 29, 43, 85, 66, 8, 21, 94, 15, 25, 27, 0)
s = 150: (0, 19, 36, 95, 61, 11, 20, 60, 14, 38, 42, 0)
s = 151: (0, 19, 59, 63, 54, 10, 12, 101, 11, 40, 44, 0)
s = 152: (0, 16, 44, 146, 82, 16, 12, 65, 10, 25, 27, 0)
s = 153: (0, 28, 47, 111, 51, 8, 13, 79, 9, 28, 34, 0)
s = 154: (0, 22, 62, 86, 108, 11, 17, 113, 7, 34, 27, 0)
s = 155: (0, 44, 51, 80, 96, 9, 22, 91, 9, 20, 20, 0)
s = 156: (0, 27, 41, 70, 63, 9, 14, 82, 14, 25, 36, 0)
s = 157: (0, 38, 35, 72, 49, 8, 17, 71, 17, 26, 38, 0)
s = 158: (0, 22, 69, 57, 68, 10, 18, 72, 13, 39, 16, 0)
s = 159: (0, 34, 43, 97, 82, 18, 25, 105, 9, 23, 37, 0)
s = 160: (0, 44, 66, 85, 81, 8, 29, 109, 20, 50, 30, 0)
s = 161: (0, 29, 42, 88, 45, 16, 19, 86, 22, 26, 31, 0)
s = 162: (0, 34, 31, 103, 70, 9, 25, 95, 10, 25, 41, 0)
s = 163: (0, 18, 55, 88, 90, 20, 13, 86, 9, 29, 30, 0)
s = 164: (0, 36, 38, 94, 128, 18, 13, 79, 14, 36, 27, 0)
s = 165: (0, 45, 56, 106, 60, 15, 16, 95, 18, 18, 26, 0)
s = 166: (0, 20, 53, 54, 111, 8, 15, 130, 10, 32, 35, 0)
s = 167: (0, 31, 54, 107, 72, 15, 19, 112, 13, 24, 20, 0)
s = 168: (0, 25, 37, 63, 50, 9, 10, 78, 11, 24, 24, 0)
s = 169: (0, 17, 54, 85, 53, 8, 18, 101, 16, 29, 30, 0)
s = 170: (0, 24, 45, 74, 71, 14, 14, 100, 10, 41, 28, 0)
s = 171: (0, 19, 40, 100, 118, 14, 13, 83, 15, 31, 18, 0)
s = 172: (0, 24, 48, 164, 69, 8, 16, 101, 10, 19, 24, 0)
s = 173: (0, 28, 44, 64, 99, 10, 20, 97, 15, 19, 44, 0)
s = 174: (0, 29, 37, 92, 121, 9, 12, 67, 10, 24, 33, 0)
s = 175: (0, 23, 35, 58, 79, 10, 10, 92, 11, 32, 36, 0)
s = 176: (0, 35, 56, 96, 97, 11, 14, 60, 13, 28, 29, 0)
s = 177: (0, 22, 46, 55, 78, 11, 9, 67, 15, 25, 30, 0)
s = 178: (0, 26, 45, 76, 64, 12, 13, 80, 8, 33, 28, 0)
s = 179: (0, 29, 44, 126, 70, 10, 14, 135, 13, 44, 24, 0)
s = 180: (0, 21, 25, 66, 46, 11, 16, 104, 14, 30, 22, 0)
s = 181: (0, 27, 26, 61, 47, 15, 15, 116, 15, 32, 25, 0)
s = 182: (0, 27, 48, 70, 94, 17, 14, 126, 10, 36, 30, 0)
s = 183: (0, 25, 38, 79, 76, 13, 15, 105, 14, 23, 34, 0)
s = 184: (0, 21, 33, 103, 53, 15, 15, 97, 25, 35, 37, 0)
s = 185: (0, 18, 50, 108, 45, 9, 31, 113, 12, 30, 30, 0)
s = 186: (0, 18, 42, 60, 79, 11, 18, 107, 17, 39, 22, 0)
s = 187: (0, 31, 46, 106, 77, 7, 16, 67, 12, 46, 26, 0)
s = 188: (0, 22, 30, 57, 59, 7, 10, 55, 20, 20, 34, 0)
s = 189: (0, 33, 45, 56, 84, 12, 13, 50, 8, 27, 25, 0)
s = 190: (0, 20, 36, 147, 67, 7, 26, 110, 20, 36, 30, 0)
s = 191: (0, 28, 51, 84, 91, 16, 23, 73, 13, 24, 50, 0)
s = 192: (0, 33, 38, 108, 64, 7, 20, 102, 22, 33, 21, 0)
s = 193: (0, 19, 65, 57, 45, 11, 10, 86, 11, 37, 30, 0)
s = 194: (0, 26, 40, 131, 85, 7, 16, 102, 7, 42, 25, 0)
s = 195: (0, 22, 59, 114, 71, 11, 19, 119, 11, 25, 35, 0)
s = 196: (0, 31, 28, 70, 51, 13, 15, 103, 12, 33, 25, 0)
s = 197: (0, 28, 48, 94, 108, 10, 23, 56, 9, 33, 23, 0)
s = 198: (0, 18, 54, 97, 50, 9, 20, 105, 13, 26, 27, 0)
s = 199: (0, 48, 75, 112, 48, 14, 19, 62, 17, 34, 30, 0)
s = 200: (0, 23, 44, 68, 89, 12, 11, 101, 11, 33, 39, 0)
------------------------------------------------------------------------
RESOURCE k = 2
s = 1: (0, 0, 0, 0, 18, 11, 0, 0, 0, 0, 0, 0)
s = 2: (0, 0, 0, 0, 30, 9, 0, 0, 0, 0, 0, 0)
s = 3: (0, 0, 0, 0, 23, 15, 0, 0, 0, 0, 0, 0)
s = 4: (0, 0, 0, 0, 22, 8, 0, 0, 0, 0, 0, 0)
s = 5: (0, 0, 0, 0, 17, 7, 0, 0, 0, 0, 0, 0)
s = 6: (0, 0, 0, 0, 24, 7, 0, 0, 0, 0, 0, 0)
s = 7: (0, 0, 0, 0, 21, 8, 0, 0, 0, 0, 0, 0)
s = 8: (0, 0, 0, 0, 22, 7, 0, 0, 0, 0, 0, 0)
s = 9: (0, 0, 0, 0, 35, 5, 0, 0, 0, 0, 0, 0)
s = 10: (0, 0, 0, 0, 31, 9, 0, 0, 0, 0, 0, 0)
s = 11: (0, 0, 0, 0, 18, 6, 0, 0, 0, 0, 0, 0)
s = 12: (0, 0, 0, 0, 29, 8, 0, 0, 0, 0, 0, 0)
s = 13: (0, 0, 0, 0, 27, 5, 0, 0, 0, 0, 0, 0)
s = 14: (0, 0, 0, 0, 17, 9, 0, 0, 0, 0, 0, 0)
s = 15: (0, 0, 0, 0, 17, 5, 0, 0, 0, 0, 0, 0)
s = 16: (0, 0, 0, 0, 32, 9, 0, 0, 0, 0, 0, 0)
s = 17: (0, 0, 0, 0, 26, 7, 0, 0, 0, 0, 0, 0)
s = 18: (0, 0, 0, 0, 36, 11, 0, 0, 0, 0, 0, 0)
s = 19: (0, 0, 0, 0, 29, 5, 0, 0, 0, 0, 0, 0)
s = 20: (0, 0, 0, 0, 16, 7, 0, 0, 0, 0, 0, 0)
s = 21: (0, 0, 0, 0, 20, 7, 0, 0, 0, 0, 0, 0)
s = 22: (0, 0, 0, 0, 17, 8, 0, 0, 0, 0, 0, 0)
s = 23: (0, 0, 0, 0, 35, 6, 0, 0, 0, 0, 0, 0)
s = 24: (0, 0, 0, 0, 16, 6, 0, 0, 0, 0, 0, 0)
s = 25: (0, 0, 0, 0, 28, 9, 0, 0, 0, 0, 0, 0)
s = 26: (0, 0, 0, 0, 17, 11, 0, 0, 0, 0, 0, 0)
s = 27: (0, 0, 0, 0, 28, 5, 0, 0, 0, 0, 0, 0)
s = 28: (0, 0, 0, 0, 29, 12, 0, 0, 0, 0, 0, 0)
s = 29: (0, 0, 0, 0, 20, 11, 0, 0, 0, 0, 0, 0)
s = 30: (0, 0, 0, 0, 17, 8, 0, 0, 0, 0, 0, 0)
s = 31: (0, 0, 0, 0, 37, 10, 0, 0, 0, 0, 0, 0)
s = 32: (0, 0, 0, 0, 33, 5, 0, 0, 0, 0, 0, 0)
s = 33: (0, 0, 0, 0, 40, 7, 0, 0, 0, 0, 0, 0)
s = 34: (0, 0, 0, 0, 24, 8, 0, 0, 0, 0, 0, 0)
s = 35: (0, 0, 0, 0, 22, 9, 0, 0, 0, 0, 0, 0)
s = 36: (0, 0, 0, 0, 30, 8, 0, 0, 0, 0, 0, 0)
s = 37: (0, 0, 0, 0, 31, 13, 0, 0, 0, 0, 0, 0)
s = 38: (0, 0, 0, 0, 18, 10, 0, 0, 0, 0, 0, 0)
s = 39: (0, 0, 0, 0, 23, 6, 0, 0, 0, 0, 0, 0)
s = 40: (0, 0, 0, 0, 15, 12, 0, 0, 0, 0, 0, 0)
s = 41: (0, 0, 0, 0, 33, 5, 0, 0, 0, 0, 0, 0)
s = 42: (0, 0, 0, 0, 30, 7, 0, 0, 0, 0, 0, 0)
s = 43: (0, 0, 0, 0, 25, 7, 0, 0, 0, 0, 0, 0)
s = 44: (0, 0, 0, 0, 41, 8, 0, 0, 0, 0, 0, 0)
s = 45: (0, 0, 0, 0, 16, 8, 0, 0, 0, 0, 0, 0)
s = 46: (0, 0, 0, 0, 24, 5, 0, 0, 0, 0, 0, 0)
s = 47: (0, 0, 0, 0, 19, 14, 0, 0, 0, 0, 0, 0)
s = 48: (0, 0, 0, 0, 26, 13, 0, 0, 0, 0, 0, 0)
s = 49: (0, 0, 0, 0, 31, 6, 0, 0, 0, 0, 0, 0)
s = 50: (0, 0, 0, 0, 15, 15, 0, 0, 0, 0, 0, 0)
s = 51: (0, 0, 0, 0, 26, 8, 0, 0, 0, 0, 0, 0)
s = 52: (0, 0, 0, 0, 17, 8, 0, 0, 0, 0, 0, 0)
s = 53: (0, 0, 0, 0, 26, 7, 0, 0, 0, 0, 0, 0)
s = 54: (0, 0, 0, 0, 35, 7, 0, 0, 0, 0, 0, 0)
s = 55: (0, 0, 0, 0, 19, 9, 0, 0, 0, 0, 0, 0)
s = 56: (0, 0, 0, 0, 14, 8, 0, 0, 0, 0, 0, 0)
s = 57: (0, 0, 0, 0, 16, 12, 0, 0, 0, 0, 0, 0)
s = 58: (0, 0, 0, 0, 19, 7, 0, 0, 0, 0, 0, 0)
s = 59: (0, 0, 0, 0, 30, 8, 0, 0, 0, 0, 0, 0)
s = 60: (0, 0, 0, 0, 15, 11, 0, 0, 0, 0, 0, 0)
s = 61: (0, 0, 0, 0, 33, 11, 0, 0, 0, 0, 0, 0)
s = 62: (0, 0, 0, 0, 32, 8, 0, 0, 0, 0, 0, 0)
s = 63: (0, 0, 0, 0, 36, 6, 0, 0, 0, 0, 0, 0)
s = 64: (0, 0, 0, 0, 31, 6, 0, 0, 0, 0, 0, 0)
s = 65: (0, 0, 0, 0, 16, 6, 0, 0, 0, 0, 0, 0)
s = 66: (0, 0, 0, 0, 28, 8, 0, 0, 0, 0, 0, 0)
s = 67: (0, 0, 0, 0, 26, 7, 0, 0, 0, 0, 0, 0)
s = 68: (0, 0, 0, 0, 21, 7, 0, 0, 0, 0, 0, 0)
s = 69: (0, 0, 0, 0, 19, 8, 0, 0, 0, 0, 0, 0)
s = 70: (0, 0, 0, 0, 23, 12, 0, 0, 0, 0, 0, 0)
s = 71: (0, 0, 0, 0, 25, 9, 0, 0, 0, 0, 0, 0)
s = 72: (0, 0, 0, 0, 33, 7, 0, 0, 0, 0, 0, 0)
s = 73: (0, 0, 0, 0, 23, 7, 0, 0, 0, 0, 0, 0)
s = 74: (0, 0, 0, 0, 35, 10, 0, 0, 0, 0, 0, 0)
s = 75: (0, 0, 0, 0, 30, 8, 0, 0, 0, 0, 0, 0)
s = 76: (0, 0, 0, 0, 18, 8, 0, 0, 0, 0, 0, 0)
s = 77: (0, 0, 0, 0, 20, 5, 0, 0, 0, 0, 0, 0)
s = 78: (0, 0, 0, 0, 22, 10, 0, 0, 0, 0, 0, 0)
s = 79: (0, 0, 0, 0, 27, 14, 0, 0, 0, 0, 0, 0)
s = 80: (0, 0, 0, 0, 24, 9, 0, 0, 0, 0, 0, 0)
s = 81: (0, 0, 0, 0, 17, 11, 0, 0, 0, 0, 0, 0)
s = 82: (0, 0, 0, 0, 25, 5, 0, 0, 0, 0, 0, 0)
s = 83: (0, 0, 0, 0, 26, 9, 0, 0, 0, 0, 0, 0)
s = 84: (0, 0, 0, 0, 23, 8, 0, 0, 0, 0, 0, 0)
s = 85: (0, 0, 0, 0, 29, 6, 0, 0, 0, 0, 0, 0)
s = 86: (0, 0, 0, 0, 16, 6, 0, 0, 0, 0, 0, 0)
s = 87: (0, 0, 0, 0, 24, 10, 0, 0, 0, 0, 0, 0)
s = 88: (0, 0, 0, 0, 40, 7, 0, 0, 0, 0, 0, 0)
s = 89: (0, 0, 0, 0, 18, 7, 0, 0, 0, 0, 0, 0)
s = 90: (0, 0, 0, 0, 25, 11, 0, 0, 0, 0, 0, 0)
s = 91: (0, 0, 0, 0, 32, 10, 0, 0, 0, 0, 0, 0)
s = 92: (0, 0, 0, 0, 28, 7, 0, 0, 0, 0, 0, 0)
s = 93: (0, 0, 0, 0, 26, 6, 0, 0, 0, 0, 0, 0)
s = 94: (0, 0, 0, 0, 13, 8, 0, 0, 0, 0, 0, 0)
s = 95: (0, 0, 0, 0, 24, 6, 0, 0, 0, 0, 0, 0)
s = 96: (0, 0, 0, 0, 18, 8, 0, 0, 0, 0, 0, 0)
s = 97: (0, 0, 0, 0, 27, 10, 0, 0, 0, 0, 0, 0)
s = 98: (0, 0, 0, 0, 32, 5, 0, 0, 0, 0, 0, 0)
s = 99: (0, 0, 0, 0, 25, 8, 0, 0, 0, 0, 0, 0)
s = 100: (0, 0, 0, 0, 24, 13, 0, 0, 0, 0, 0, 0)
s = 101: (0, 0, 0, 0, 23, 5, 0, 0, 0, 0, 0, 0)
s = 102: (0, 0, 0, 0, 23, 10, 0, 0, 0, 0, 0, 0)
s = 103: (0, 0, 0, 0, 22, 9, 0, 0, 0, 0, 0, 0)
s = 104: (0, 0, 0, 0, 34, 11, 0, 0, 0, 0, 0, 0)
s = 105: (0, 0, 0, 0, 33, 8, 0, 0, 0, 0, 0, 0)
s = 106: (0, 0, 0, 0, 20, 8, 0, 0, 0, 0, 0, 0)
s = 107: (0, 0, 0, 0, 37, 6, 0, 0, 0, 0, 0, 0)
s = 108: (0, 0, 0, 0, 26, 5, 0, 0, 0, 0, 0, 0)
s = 109: (0, 0, 0, 0, 44, 13, 0, 0, 0, 0, 0, 0)
s = 110: (0, 0, 0, 0, 13, 13, 0, 0, 0, 0, 0, 0)
s = 111: (0, 0, 0, 0, 31, 7, 0, 0, 0, 0, 0, 0)
s = 112: (0, 0, 0, 0, 15, 6, 0, 0, 0, 0, 0, 0)
s = 113: (0, 0, 0, 0, 17, 5, 0, 0, 0, 0, 0, 0)
s = 114: (0, 0, 0, 0, 39, 10, 0, 0, 0, 0, 0, 0)
s = 115: (0, 0, 0, 0, 30, 6, 0, 0, 0, 0, 0, 0)
s = 116: (0, 0, 0, 0, 31, 7, 0, 0, 0, 0, 0, 0)
s = 117: (0, 0, 0, 0, 19, 6, 0, 0, 0, 0, 0, 0)
s = 118: (0, 0, 0, 0, 27, 9, 0, 0, 0, 0, 0, 0)
s = 119: (0, 0, 0, 0, 29, 8, 0, 0, 0, 0, 0, 0)
s = 120: (0, 0, 0, 0, 18, 9, 0, 0, 0, 0, 0, 0)
s = 121: (0, 0, 0, 0, 32, 7, 0, 0, 0, 0, 0, 0)
s = 122: (0, 0, 0, 0, 22, 12, 0, 0, 0, 0, 0, 0)
s = 123: (0, 0, 0, 0, 22, 9, 0, 0, 0, 0, 0, 0)
s = 124: (0, 0, 0, 0, 38, 9, 0, 0, 0, 0, 0, 0)
s = 125: (0, 0, 0, 0, 26, 9, 0, 0, 0, 0, 0, 0)
s = 126: (0, 0, 0, 0, 19, 8, 0, 0, 0, 0, 0, 0)
s = 127: (0, 0, 0, 0, 27, 11, 0, 0, 0, 0, 0, 0)
s = 128: (0, 0, 0, 0, 21, 5, 0, 0, 0, 0, 0, 0)
s = 129: (0, 0, 0, 0, 26, 10, 0, 0, 0, 0, 0, 0)
s = 130: (0, 0, 0, 0, 33, 8, 0, 0, 0, 0, 0, 0)
s = 131: (0, 0, 0, 0, 27, 6, 0, 0, 0, 0, 0, 0)
s = 132: (0, 0, 0, 0, 19, 11, 0, 0, 0, 0, 0, 0)
s = 133: (0, 0, 0, 0, 26, 7, 0, 0, 0, 0, 0, 0)
s = 134: (0, 0, 0, 0, 23, 9, 0, 0, 0, 0, 0, 0)
s = 135: (0, 0, 0, 0, 26, 12, 0, 0, 0, 0, 0, 0)
s = 136: (0, 0, 0, 0, 18, 7, 0, 0, 0, 0, 0, 0)
s = 137: (0, 0, 0, 0, 33, 11, 0, 0, 0, 0, 0, 0)
s = 138: (0, 0, 0, 0, 28, 7, 0, 0, 0, 0, 0, 0)
s = 139: (0, 0, 0, 0, 34, 9, 0, 0, 0, 0, 0, 0)
s = 140: (0, 0, 0, 0, 28, 7, 0, 0, 0, 0, 0, 0)
s = 141: (0, 0, 0, 0, 20, 9, 0, 0, 0, 0, 0, 0)
s = 142: (0, 0, 0, 0, 25, 8, 0, 0, 0, 0, 0, 0)
s = 143: (0, 0, 0, 0, 22, 8, 0, 0, 0, 0, 0, 0)
s = 144: (0, 0, 0, 0, 21, 7, 0, 0, 0, 0, 0, 0)
s = 145: (0, 0, 0, 0, 21, 8, 0, 0, 0, 0, 0, 0)
s = 146: (0, 0, 0, 0, 29, 11, 0, 0, 0, 0, 0, 0)
s = 147: (0, 0, 0, 0, 39, 10, 0, 0, 0, 0, 0, 0)
s = 148: (0, 0, 0, 0, 25, 10, 0, 0, 0, 0, 0, 0)
s = 149: (0, 0, 0, 0, 22, 6, 0, 0, 0, 0, 0, 0)
s = 150: (0, 0, 0, 0, 21, 8, 0, 0, 0, 0, 0, 0)
s = 151: (0, 0, 0, 0, 18, 7, 0, 0, 0, 0, 0, 0)
s = 152: (0, 0, 0, 0, 28, 12, 0, 0, 0, 0, 0, 0)
s = 153: (0, 0, 0, 0, 17, 6, 0, 0, 0, 0, 0, 0)
s = 154: (0, 0, 0, 0, 36, 8, 0, 0, 0, 0, 0, 0)
s = 155: (0, 0, 0, 0, 32, 6, 0, 0, 0, 0, 0, 0)
s = 156: (0, 0, 0, 0, 21, 7, 0, 0, 0, 0, 0, 0)
s = 157: (0, 0, 0, 0, 17, 6, 0, 0, 0, 0, 0, 0)
s = 158: (0, 0, 0, 0, 23, 7, 0, 0, 0, 0, 0, 0)
s = 159: (0, 0, 0, 0, 28, 13, 0, 0, 0, 0, 0, 0)
s = 160: (0, 0, 0, 0, 27, 6, 0, 0, 0, 0, 0, 0)
s = 161: (0, 0, 0, 0, 15, 12, 0, 0, 0, 0, 0, 0)
s = 162: (0, 0, 0, 0, 24, 7, 0, 0, 0, 0, 0, 0)
s = 163: (0, 0, 0, 0, 30, 15, 0, 0, 0, 0, 0, 0)
s = 164: (0, 0, 0, 0, 43, 13, 0, 0, 0, 0, 0, 0)
s = 165: (0, 0, 0, 0, 20, 11, 0, 0, 0, 0, 0, 0)
s = 166: (0, 0, 0, 0, 37, 6, 0, 0, 0, 0, 0, 0)
s = 167: (0, 0, 0, 0, 24, 11, 0, 0, 0, 0, 0, 0)
s = 168: (0, 0, 0, 0, 17, 7, 0, 0, 0, 0, 0, 0)
s = 169: (0, 0, 0, 0, 18, 6, 0, 0, 0, 0, 0, 0)
s = 170: (0, 0, 0, 0, 24, 11, 0, 0, 0, 0, 0, 0)
s = 171: (0, 0, 0, 0, 40, 10, 0, 0, 0, 0, 0, 0)
s = 172: (0, 0, 0, 0, 23, 6, 0, 0, 0, 0, 0, 0)
s = 173: (0, 0, 0, 0, 33, 7, 0, 0, 0, 0, 0, 0)
s = 174: (0, 0, 0, 0, 41, 7, 0, 0, 0, 0, 0, 0)
s = 175: (0, 0, 0, 0, 27, 8, 0, 0, 0, 0, 0, 0)
s = 176: (0, 0, 0, 0, 33, 8, 0, 0, 0, 0, 0, 0)
s = 177: (0, 0, 0, 0, 26, 8, 0, 0, 0, 0, 0, 0)
s = 178: (0, 0, 0, 0, 22, 9, 0, 0, 0, 0, 0, 0)
s = 179: (0, 0, 0, 0, 24, 8, 0, 0, 0, 0, 0, 0)
s = 180: (0, 0, 0, 0, 16, 8, 0, 0, 0, 0, 0, 0)
s = 181: (0, 0, 0, 0, 16, 11, 0, 0, 0, 0, 0, 0)
s = 182: (0, 0, 0, 0, 32, 13, 0, 0, 0, 0, 0, 0)
s = 183: (0, 0, 0, 0, 26, 9, 0, 0, 0, 0, 0, 0)
s = 184: (0, 0, 0, 0, 18, 11, 0, 0, 0, 0, 0, 0)
s = 185: (0, 0, 0, 0, 15, 7, 0, 0, 0, 0, 0, 0)
s = 186: (0, 0, 0, 0, 27, 8, 0, 0, 0, 0, 0, 0)
s = 187: (0, 0, 0, 0, 26, 6, 0, 0, 0, 0, 0, 0)
s = 188: (0, 0, 0, 0, 20, 5, 0, 0, 0, 0, 0, 0)
s = 189: (0, 0, 0, 0, 28, 9, 0, 0, 0, 0, 0, 0)
s = 190: (0, 0, 0, 0, 23, 6, 0, 0, 0, 0, 0, 0)
s = 191: (0, 0, 0, 0, 31, 12, 0, 0, 0, 0, 0, 0)
s = 192: (0, 0, 0, 0, 22, 5, 0, 0, 0, 0, 0, 0)
s = 193: (0, 0, 0, 0, 15, 8, 0, 0, 0, 0, 0, 0)
s = 194: (0, 0, 0, 0, 29, 5, 0, 0, 0, 0, 0, 0)
s = 195: (0, 0, 0, 0, 24, 8, 0, 0, 0, 0, 0, 0)
s = 196: (0, 0, 0, 0, 17, 9, 0, 0, 0, 0, 0, 0)
s = 197: (0, 0, 0, 0, 36, 7, 0, 0, 0, 0, 0, 0)
s = 198: (0, 0, 0, 0, 17, 7, 0, 0, 0, 0, 0, 0)
s = 199: (0, 0, 0, 0, 16, 10, 0, 0, 0, 0, 0, 0)
s = 200: (0, 0, 0, 0, 30, 9, 0, 0, 0, 0, 0, 0)
------------------------------------------------------------------------
RESOURCE k = 3
s = 1: (0, 10, 18, 27, 0, 0, 11, 37, 8, 30, 15, 0)
s = 2: (0, 11, 17, 44, 0, 0, 10, 48, 5, 15, 16, 0)
s = 3: (0, 12, 23, 34, 0, 0, 10, 54, 7, 17, 24, 0)
s = 4: (0, 12, 15, 34, 0, 0, 6, 69, 4, 17, 12, 0)
s = 5: (0, 14, 25, 24, 0, 0, 6, 44, 6, 15, 19, 0)
s = 6: (0, 12, 16, 43, 0, 0, 10, 59, 8, 17, 16, 0)
s = 7: (0, 6, 27, 43, 0, 0, 11, 29, 9, 21, 28, 0)
s = 8: (0, 9, 13, 55, 0, 0, 9, 50, 8, 13, 22, 0)
s = 9: (0, 11, 14, 22, 0, 0, 10, 74, 7, 23, 24, 0)
s = 10: (0, 8, 25, 22, 0, 0, 7, 42, 8, 29, 22, 0)
s = 11: (0, 7, 19, 33, 0, 0, 11, 57, 8, 15, 20, 0)
s = 12: (0, 9, 14, 28, 0, 0, 10, 28, 7, 28, 16, 0)
s = 13: (0, 9, 19, 25, 0, 0, 11, 62, 5, 25, 14, 0)
s = 14: (0, 9, 16, 43, 0, 0, 9, 51, 5, 24, 20, 0)
s = 15: (0, 16, 22, 29, 0, 0, 10, 70, 9, 19, 12, 0)
s = 16: (0, 9, 22, 27, 0, 0, 6, 48, 4, 23, 19, 0)
s = 17: (0, 9, 15, 26, 0, 0, 10, 51, 4, 15, 13, 0)
s = 18: (0, 10, 25, 48, 0, 0, 10, 34, 6, 15, 18, 0)
s = 19: (0, 9, 13, 38, 0, 0, 12, 56, 6, 30, 20, 0)
s = 20: (0, 9, 17, 34, 0, 0, 9, 55, 6, 11, 13, 0)
s = 21: (0, 14, 26, 30, 0, 0, 12, 62, 6, 17, 23, 0)
s = 22: (0, 14, 22, 45, 0, 0, 7, 49, 4, 12, 17, 0)
s = 23: (0, 9, 20, 47, 0, 0, 8, 44, 7, 11, 23, 0)
s = 24: (0, 14, 15, 27, 0, 0, 9, 33, 8, 20, 27, 0)
s = 25: (0, 8, 11, 28, 0, 0, 8, 32, 5, 19, 10, 0)
s = 26: (0, 9, 26, 27, 0, 0, 9, 49, 7, 19, 13, 0)
s = 27: (0, 15, 17, 32, 0, 0, 7, 50, 8, 24, 10, 0)
s = 28: (0, 8, 14, 56, 0, 0, 11, 33, 7, 18, 32, 0)
s = 29: (0, 8, 19, 30, 0, 0, 8, 41, 7, 24, 20, 0)
s = 30: (0, 6, 18, 27, 0, 0, 6, 55, 6, 22, 27, 0)
s = 31: (0, 6, 27, 39, 0, 0, 11, 30, 11, 18, 15, 0)
s = 32: (0, 12, 14, 50, 0, 0, 11, 46, 4, 17, 23, 0)
s = 33: (0, 12, 24, 29, 0, 0, 8, 40, 8, 16, 12, 0)
s = 34: (0, 16, 17, 39, 0, 0, 9, 43, 4, 17, 25, 0)
s = 35: (0, 13, 18, 41, 0, 0, 8, 27, 6, 17, 26, 0)
s = 36: (0, 13, 24, 56, 0, 0, 10, 46, 6, 23, 19, 0)
s = 37: (0, 6, 29, 32, 0, 0, 9, 43, 4, 29, 16, 0)
s = 38: (0, 9, 17, 58, 0, 0, 7, 49, 6, 20, 11, 0)
s = 39: (0, 9, 17, 35, 0, 0, 14, 29, 7, 17, 16, 0)
s = 40: (0, 10, 15, 35, 0, 0, 9, 36, 8, 20, 26, 0)
s = 41: (0, 7, 20, 28, 0, 0, 7, 75, 8, 12, 18, 0)
s = 42: (0, 11, 18, 41, 0, 0, 6, 53, 4, 15, 12, 0)
s = 43: (0, 10, 21, 36, 0, 0, 14, 55, 6, 19, 22, 0)
s = 44: (0, 10, 20, 34, 0, 0, 11, 56, 6, 23, 18, 0)
s = 45: (0, 15, 18, 51, 0, 0, 9, 45, 7, 15, 16, 0)
s = 46: (0, 8, 14, 26, 0, 0, 10, 52, 7, 18, 20, 0)
s = 47: (0, 8, 17, 22, 0, 0, 6, 56, 11, 23, 18, 0)
s = 48: (0, 12, 12, 31, 0, 0, 11, 51, 5, 19, 17, 0)
s = 49: (0, 11, 13, 34, 0, 0, 10, 48, 6, 16, 13, 0)
s = 50: (0, 10, 12, 32, 0, 0, 8, 41, 7, 18, 12, 0)
s = 51: (0, 12, 13, 24, 0, 0, 11, 53, 5, 11, 20, 0)
s = 52: (0, 11, 30, 27, 0, 0, 10, 46, 8, 13, 21, 0)
s = 53: (0, 10, 15, 25, 0, 0, 8, 47, 11, 27, 23, 0)
s = 54: (0, 12, 25, 22, 0, 0, 10, 51, 7, 23, 23, 0)
s = 55: (0, 13, 21, 52, 0, 0, 8, 43, 4, 23, 27, 0)
s = 56: (0, 14, 12, 29, 0, 0, 8, 28, 5, 27, 27, 0)
s = 57: (0, 8, 15, 42, 0, 0, 8, 33, 8, 17, 13, 0)
s = 58: (0, 14, 11, 27, 0, 0, 9, 45, 7, 18, 10, 0)
s = 59: (0, 14, 15, 39, 0, 0, 12, 41, 5, 18, 20, 0)
s = 60: (0, 12, 23, 44, 0, 0, 9, 55, 4, 14, 24, 0)
s = 61: (0, 15, 21, 44, 0, 0, 7, 37, 6, 20, 13, 0)
s = 62: (0, 8, 16, 42, 0, 0, 7, 30, 4, 25, 21, 0)
s = 63: (0, 14, 19, 52, 0, 0, 11, 38, 5, 18, 20, 0)
s = 64: (0, 7, 15, 38, 0, 0, 11, 42, 5, 22, 20, 0)
s = 65: (0, 13, 15, 31, 0, 0, 9, 57, 6, 16, 21, 0)
s = 66: (0, 11, 22, 23, 0, 0, 13, 58, 6, 28, 20, 0)
s = 67: (0, 7, 17, 27, 0, 0, 8, 26, 8, 11, 19, 0)
s = 68: (0, 14, 13, 44, 0, 0, 7, 43, 7, 25, 32, 0)
s = 69: (0, 10, 23, 25, 0, 0, 7, 51, 9, 13, 19, 0)
s = 70: (0, 7, 25, 49, 0, 0, 6, 40, 8, 16, 14, 0)
s = 71: (0, 15, 23, 34, 0, 0, 5, 50, 6, 17, 15, 0)
s = 72: (0, 6, 15, 55, 0, 0, 8, 39, 6, 15, 14, 0)
s = 73: (0, 13, 20, 35, 0, 0, 8, 70, 8, 17, 14, 0)
s = 74: (0, 8, 18, 37, 0, 0, 13, 36, 5, 21, 18, 0)
s = 75: (0, 8, 22, 38, 0, 0, 8, 68, 8, 16, 12, 0)
s = 76: (0, 16, 15, 35, 0, 0, 9, 39, 6, 12, 13, 0)
s = 77: (0, 13, 15, 51, 0, 0, 10, 56, 9, 16, 15, 0)
s = 78: (0, 16, 14, 37, 0, 0, 8, 39, 8, 12, 28, 0)
s = 79: (0, 14, 13, 37, 0, 0, 9, 44, 7, 13, 17, 0)
s = 80: (0, 7, 15, 28, 0, 0, 10, 41, 6, 15, 15, 0)
s = 81: (0, 10, 14, 42, 0, 0, 6, 55, 4, 31, 19, 0)
s = 82: (0, 13, 12, 59, 0, 0, 9, 33, 6, 16, 21, 0)
s = 83: (0, 8, 26, 48, 0, 0, 10, 56, 7, 25, 18, 0)
s = 84: (0, 7, 16, 43, 0, 0, 13, 36, 6, 18, 18, 0)
s = 85: (0, 9, 20, 37, 0, 0, 8, 36, 11, 17, 19, 0)
s = 86: (0, 7, 17, 34, 0, 0, 7, 42, 6, 16, 12, 0)
s = 87: (0, 9, 14, 20, 0, 0, 6, 46, 5, 14, 16, 0)
s = 88: (0, 12, 18, 33, 0, 0, 7, 25, 5, 14, 21, 0)
s = 89: (0, 7, 15, 30, 0, 0, 8, 48, 4, 13, 17, 0)
s = 90: (0, 12, 26, 62, 0, 0, 9, 40, 8, 17, 20, 0)
s = 91: (0, 7, 16, 26, 0, 0, 10, 44, 5, 24, 16, 0)
s = 92: (0, 9, 23, 49, 0, 0, 12, 27, 4, 21, 22, 0)
s = 93: (0, 9, 17, 56, 0, 0, 6, 41, 5, 14, 10, 0)
s = 94: (0, 12, 11, 51, 0, 0, 10, 29, 4, 20, 20, 0)
s = 95: (0, 7, 16, 24, 0, 0, 6, 36, 5, 13, 21, 0)
s = 96: (0, 11, 16, 36, 0, 0, 5, 67, 5, 17, 13, 0)
s = 97: (0, 12, 19, 23, 0, 0, 14, 35, 6, 18, 19, 0)
s = 98: (0, 7, 16, 24, 0, 0, 9, 35, 8, 25, 12, 0)
s = 99: (0, 12, 11, 34, 0, 0, 10, 27, 7, 18, 22, 0)
s = 100: (0, 7, 18, 37, 0, 0, 6, 29, 8, 20, 16, 0)
s = 101: (0, 9, 32, 31, 0, 0, 6, 79, 5, 21, 16, 0)
s = 102: (0, 7, 15, 42, 0, 0, 9, 54, 5, 11, 12, 0)
s = 103: (0, 7, 20, 26, 0, 0, 6, 43, 4, 29, 24, 0)
s = 104: (0, 12, 23, 25, 0, 0, 8, 46, 7, 24, 30, 0)
s = 105: (0, 12, 12, 24, 0, 0, 7, 28, 6, 23, 16, 0)
s = 106: (0, 8, 15, 52, 0, 0, 7, 37, 9, 14, 25, 0)
s = 107: (0, 9, 23, 25, 0, 0, 6, 47, 8, 18, 11, 0)
s = 108: (0, 8, 20, 36, 0, 0, 8, 57, 7, 14, 16, 0)
s = 109: (0, 19, 19, 26, 0, 0, 6, 58, 7, 25, 17, 0)
s = 110: (0, 9, 25, 42, 0, 0, 9, 30, 5, 22, 12, 0)
s = 111: (0, 9, 13, 36, 0, 0, 7, 32, 5, 14, 22, 0)
s = 112: (0, 18, 13, 26, 0, 0, 15, 64, 4, 15, 27, 0)
s = 113: (0, 12, 21, 47, 0, 0, 5, 44, 4, 20, 17, 0)
s = 114: (0, 10, 23, 25, 0, 0, 12, 49, 4, 27, 14, 0)
s = 115: (0, 7, 21, 21, 0, 0, 5, 66, 10, 28, 24, 0)
s = 116: (0, 11, 17, 26, 0, 0, 5, 30, 9, 23, 25, 0)
s = 117: (0, 6, 17, 45, 0, 0, 7, 32, 10, 13, 19, 0)
s = 118: (0, 10, 27, 29, 0, 0, 7, 59, 10, 27, 32, 0)
s = 119: (0, 12, 14, 46, 0, 0, 10, 53, 8, 26, 23, 0)
s = 120: (0, 13, 13, 36, 0, 0, 9, 33, 9, 18, 15, 0)
s = 121: (0, 17, 14, 49, 0, 0, 7, 38, 6, 17, 17, 0)
s = 122: (0, 8, 12, 37, 0, 0, 6, 37, 5, 21, 12, 0)
s = 123: (0, 9, 25, 36, 0, 0, 10, 46, 7, 19, 25, 0)
s = 124: (0, 12, 13, 42, 0, 0, 8, 49, 5, 24, 21, 0)
s = 125: (0, 10, 21, 54, 0, 0, 9, 56, 6, 14, 20, 0)
s = 126: (0, 10, 24, 50, 0, 0, 6, 49, 5, 13, 17, 0)
s = 127: (0, 17, 30, 24, 0, 0, 12, 39, 5, 17, 14, 0)
s = 128: (0, 7, 20, 38, 0, 0, 6, 39, 6, 17, 26, 0)
s = 129: (0, 9, 21, 40, 0, 0, 12, 27, 11, 19, 19, 0)
s = 130: (0, 8, 21, 38, 0, 0, 8, 35, 7, 12, 17, 0)
s = 131: (0, 11, 21, 26, 0, 0, 9, 69, 8, 27, 12, 0)
s = 132: (0, 13, 15, 26, 0, 0, 9, 58, 5, 27, 20, 0)
s = 133: (0, 7, 13, 25, 0, 0, 8, 38, 7, 19, 15, 0)
s = 134: (0, 11, 12, 31, 0, 0, 5, 62, 6, 23, 19, 0)
s = 135: (0, 9, 23, 28, 0, 0, 12, 27, 7, 16, 11, 0)
s = 136: (0, 7, 21, 20, 0, 0, 10, 36, 8, 13, 22, 0)
s = 137: (0, 10, 23, 35, 0, 0, 5, 47, 7, 25, 12, 0)
s = 138: (0, 16, 14, 52, 0, 0, 9, 57, 6, 25, 17, 0)
s = 139: (0, 8, 19, 54, 0, 0, 10, 40, 5, 12, 18, 0)
s = 140: (0, 7, 11, 30, 0, 0, 10, 60, 5, 26, 28, 0)
s = 141: (0, 10, 22, 34, 0, 0, 7, 41, 8, 14, 24, 0)
s = 142: (0, 8, 21, 47, 0, 0, 6, 60, 6, 20, 10, 0)
s = 143: (0, 10, 15, 22, 0, 0, 9, 35, 5, 14, 15, 0)
s = 144: (0, 6, 25, 28, 0, 0, 6, 50, 4, 18, 20, 0)
s = 145: (0, 6, 21, 19, 0, 0, 12, 34, 5, 28, 23, 0)
s = 146: (0, 14, 21, 34, 0, 0, 8, 42, 9, 13, 14, 0)
s = 147: (0, 10, 22, 30, 0, 0, 7, 26, 4, 15, 22, 0)
s = 148: (0, 8, 14, 30, 0, 0, 8, 53, 6, 21, 28, 0)
s = 149: (0, 12, 17, 35, 0, 0, 10, 47, 7, 15, 16, 0)
s = 150: (0, 8, 15, 40, 0, 0, 10, 30, 7, 23, 25, 0)
s = 151: (0, 8, 24, 26, 0, 0, 6, 51, 5, 24, 27, 0)
s = 152: (0, 6, 18, 60, 0, 0, 6, 33, 5, 15, 16, 0)
s = 153: (0, 11, 19, 46, 0, 0, 6, 40, 5, 17, 20, 0)
s = 154: (0, 9, 25, 36, 0, 0, 8, 57, 4, 21, 16, 0)
s = 155: (0, 17, 21, 33, 0, 0, 11, 46, 5, 12, 12, 0)
s = 156: (0, 11, 17, 29, 0, 0, 7, 41, 7, 15, 22, 0)
s = 157: (0, 15, 14, 30, 0, 0, 8, 36, 8, 16, 23, 0)
s = 158: (0, 9, 28, 24, 0, 0, 9, 36, 6, 24, 10, 0)
s = 159: (0, 13, 18, 40, 0, 0, 12, 53, 4, 14, 22, 0)
s = 160: (0, 17, 27, 35, 0, 0, 14, 55, 10, 30, 18, 0)
s = 161: (0, 11, 17, 37, 0, 0, 9, 43, 11, 16, 19, 0)
s = 162: (0, 14, 13, 43, 0, 0, 12, 48, 5, 15, 25, 0)
s = 163: (0, 7, 22, 36, 0, 0, 7, 43, 4, 17, 18, 0)
s = 164: (0, 14, 16, 39, 0, 0, 6, 40, 7, 22, 16, 0)
s = 165: (0, 18, 23, 44, 0, 0, 8, 48, 9, 11, 16, 0)
s = 166: (0, 8, 22, 23, 0, 0, 7, 65, 5, 20, 21, 0)
s = 167: (0, 12, 22, 44, 0, 0, 9, 56, 6, 15, 12, 0)
s = 168: (0, 10, 15, 26, 0, 0, 5, 39, 6, 15, 15, 0)
s = 169: (0, 7, 22, 35, 0, 0, 9, 51, 8, 17, 18, 0)
s = 170: (0, 10, 18, 31, 0, 0, 7, 50, 5, 25, 17, 0)
s = 171: (0, 8, 16, 42, 0, 0, 6, 42, 7, 19, 11, 0)
s = 172: (0, 9, 20, 68, 0, 0, 8, 51, 5, 12, 14, 0)
s = 173: (0, 11, 18, 27, 0, 0, 10, 49, 7, 12, 26, 0)
s = 174: (0, 11, 15, 38, 0, 0, 6, 34, 5, 15, 20, 0)
s = 175: (0, 9, 14, 24, 0, 0, 5, 46, 5, 19, 22, 0)
s = 176: (0, 14, 23, 40, 0, 0, 7, 30, 6, 17, 18, 0)
s = 177: (0, 9, 19, 23, 0, 0, 5, 34, 7, 15, 18, 0)
s = 178: (0, 10, 18, 31, 0, 0, 6, 40, 4, 20, 17, 0)
s = 179: (0, 11, 18, 52, 0, 0, 7, 68, 6, 27, 15, 0)
s = 180: (0, 8, 10, 28, 0, 0, 8, 52, 7, 18, 13, 0)
s = 181: (0, 11, 11, 26, 0, 0, 7, 58, 7, 19, 15, 0)
s = 182: (0, 11, 20, 29, 0, 0, 7, 63, 5, 22, 18, 0)
s = 183: (0, 10, 16, 33, 0, 0, 7, 53, 7, 14, 21, 0)
s = 184: (0, 8, 13, 43, 0, 0, 7, 49, 12, 21, 22, 0)
s = 185: (0, 7, 20, 45, 0, 0, 15, 57, 6, 18, 18, 0)
s = 186: (0, 7, 17, 25, 0, 0, 9, 54, 8, 24, 13, 0)
s = 187: (0, 12, 19, 44, 0, 0, 8, 34, 6, 28, 16, 0)
s = 188: (0, 9, 12, 24, 0, 0, 5, 28, 9, 12, 21, 0)
s = 189: (0, 13, 18, 23, 0, 0, 7, 25, 4, 16, 15, 0)
s = 190: (0, 8, 15, 61, 0, 0, 12, 55, 10, 22, 18, 0)
s = 191: (0, 11, 21, 35, 0, 0, 11, 37, 6, 14, 30, 0)
s = 192: (0, 13, 16, 45, 0, 0, 10, 51, 10, 20, 13, 0)
s = 193: (0, 8, 26, 24, 0, 0, 5, 43, 6, 23, 18, 0)
s = 194: (0, 10, 16, 54, 0, 0, 8, 51, 4, 26, 15, 0)
s = 195: (0, 9, 24, 47, 0, 0, 9, 60, 5, 15, 21, 0)
s = 196: (0, 12, 11, 29, 0, 0, 7, 52, 6, 20, 15, 0)
s = 197: (0, 11, 19, 39, 0, 0, 11, 28, 4, 20, 14, 0)
s = 198: (0, 7, 22, 40, 0, 0, 10, 53, 6, 16, 16, 0)
s = 199: (0, 19, 30, 46, 0, 0, 9, 31, 8, 20, 18, 0)
s = 200: (0, 9, 18, 28, 0, 0, 5, 51, 5, 20, 23, 0)
************************************************************************
ES/LS-VALUES:
jobnr.   ES(i)    LS(i)
------------------------------------------------------------------------
  0        0        0
  1        0       73
  2        0       67
  3        0       54
  4        9       64
  5        9       64
  6       17       73
  7       10       66
  8       17       77
  9       18       75
 10       18       75
 11       21       79
************************************************************************
BIG-M-VALUES:
M1 = 44, M2 = 259
************************************************************************
